c WARNING: for repeatability, setting FPU to use double precision
d VARIABLES            120438       
d CONSTRAINTS          533396       
c ============================[ Problem Statistics ]=============================
c |                                                                             |
c |  Number of variables:        120438                                         |
c |  Number of clauses:          533396                                         |
c |  Parse time:                   0.08 s                                       |
c |                                                                             |
c ============================[ Search Statistics ]==============================
c | Conflicts |          ORIGINAL         |          LEARNT          | Progress |
c |           |    Vars  Clauses Literals |    Limit  Clauses Lit/Cl |          |
c ===============================================================================
c |       100 |  101544   479516  1163560 |   175822      100     12 | 15.688 % |
c |       250 |  101544   479516  1163560 |   193404      250     29 | 15.688 % |
c |       475 |  101544   479516  1163560 |   212745      475     46 | 15.688 % |
c |       812 |  101544   479516  1163560 |   234019      812     57 | 15.688 % |
c |      1318 |  101544   479516  1163560 |   257421     1318     92 | 15.688 % |
c |      2077 |  101544   479516  1163560 |   283163     2077     88 | 15.688 % |
c |      3216 |  101544   479516  1163560 |   311480     3216     94 | 15.688 % |
c |      4924 |  101544   479516  1163560 |   342628     4924    100 | 15.688 % |
c |      7486 |  101544   479516  1163560 |   376891     7486    134 | 15.688 % |
c |     11330 |  101544   479516  1163560 |   414580    11330    138 | 15.688 % |
c |     17096 |  101544   479516  1163560 |   456038    17096    150 | 15.688 % |
c |     25745 |  101544   479516  1163560 |   501642    25745    157 | 15.688 % |
c |     38719 |  101544   479516  1163560 |   551806    38719    156 | 15.688 % |
c |     58180 |  101544   479516  1163560 |   606987    58180    162 | 15.688 % |
c |     87372 |  101544   479516  1163560 |   667685    87372    171 | 15.688 % |
c |    131161 |  101544   479516  1163560 |   734454   131161    190 | 15.688 % |
c |    196845 |  101535   479472  1163454 |   807899   196844    181 | 15.695 % |
c |    295371 |  101534   479464  1163436 |   888689   295356    169 | 15.696 % |
c |    443160 |  101533   479456  1163418 |   977558   443137    159 | 15.697 % |
c |    664843 |  101532   479448  1163400 |  1075314   664808    166 | 15.698 % |
c |    997368 |  101532   479448  1163400 |  1182846   997333    168 | 15.698 % |
c |   1496156 |  101518   479382  1163244 |  1301130   333132    137 | 15.709 % |
c ===============================================================================
c restarts              : 4094
c conflicts             : 2241087        (1251 /sec)
c decisions             : 6673864        (0.00 % random) (3724 /sec)
c propagations          : 2968266007     (1656291 /sec)
c conflict literals     : 365619522      (36.96 % deleted)
d RESTARTS             4094
d FAILURES             2241087      
d NODES                6673864      
d BACKTRACKS           6673864      
d PROPAGATIONS         2968266007   
d NOGOODSIZE           163.14 
d MEMORY               1033.00 
d TIME                 1792.12 

s UNKNOWN
